echo

start benzene_nics2

title "benzene nics2"

geometry noautoz units angstrom nocenter
symmetry c1
C   0.98348719 0.98348719 0.00000000
C  -1.34346849 0.35998130 0.00000000
C   0.35998130 -1.34346849 0.00000000
C  -0.98348719 -0.98348719 0.00000000
C   1.34346849 -0.35998130 0.00000000
C  -0.35998130 1.34346849 0.00000000
H   1.74853940 1.74853940 0.00000000
H  -2.38854924 0.64000984 0.00000000
H   0.64000984 -2.38854924 0.00000000
H  -1.74853940 -1.74853940 0.00000000
H   2.38854924 -0.64000984 0.00000000
H  -0.64000984 2.38854924 0.00000000
bqH  0.00000000  0.0000000 0.00000000 
end

basis "ao basis" spherical
 c library 6-311g**
 h library 6-311g**
 bqH library H 6-311g**
end

dft
 direct
 xc b3lyp
end

property
 shielding 1 13
end
task dft property
