echo
start co_core

title co_core

memory 1000 mb

geometry units angstrom noautosym nocenter
 O 0       0        0
 C 0       0.00     1.15
end

basis
  * library aug-cc-pvtz
end

dft
  xc b3lyp
end
task dft optimize

dft
  xc beckehandh
end
task dft 

tddft
  cis
  ecut -15
  nroots 30
  notriplet
  thresh 1e-03
end 
task tddft
