echo

start dft_semidirect

memory stack 700 mb heap 300 mb global 500 mb

# do calculation with direct for comparison

set int:txs:limxmem 30000000

geometry units bohr
  symmetry c2v
  F     0.00000000     0.00000000     1.7328795
  H     0.00000000     0.00000000     0.0000000
end

basis "ao basis" spherical
  * library aug-cc-pvqz
end

tddft
  nroots 4
end

dft
  xc b3lyp
  convergence energy 1e-8 density 1e-7 gradient 1e-7
  vectors input atomic
  direct
end

task tddft energy

# test new method of semidirect input

dft
  xc b3lyp
  convergence energy 1e-8 density 1e-7 gradient 1e-7
  vectors input atomic
  semidirect memsize 51200000 filesize 0 # use 400 mb of memory and no disk
end

task tddft energy

# test old method of semidirect input

scf
  semidirect memsize 51200000 filesize 0 # use 400 mb of memory and no disk
end

dft
  xc b3lyp
  convergence energy 1e-8 density 1e-7 gradient 1e-7
  vectors input atomic
end

task tddft energy

