# This tests CIS, TDHF, TDDFT functionality at once
# by using a hybrid LDA, GGA, HF functional for 
# spin unrestricted reference with symmetry on.

start tddft_n2+

echo

title "TDDFT N2+ 1.0977A B3LYP/6-31G** QA TEST"

charge 1

geometry
symmetry d2h
N 0.0 0.0 -0.54885
N 0.0 0.0  0.54885
end

basis
N library 6-31G**
end

dft
xc b3lyp
mult 2
end

tddft
nroots 10
end

task tddft energy
