echo
start h2o_diag_opt_ub3lyp_dat

geometry units au
 O 0       0        0
 H 0       1.430   -1.107
 H 0      -1.430   -1.107
end
charge 1


basis
  O library 6-31g*
  H library 6-31g*
end

dft
  odft
  mult 2
  xc b3lyp
  print "forces" "force components"
  convergence nr 0.0
end

task dft optimize
