start 

echo

title "VEM TDDFT N2  1.2A B3LYP/6-31G** QA TEST"

charge 0

geometry
symmetry d2h
N 0.0 0.0 -0.6
N 0.0 0.0  0.6
end

basis spherical
N library 6-31G**
end

dft
xc b3lyp
end
driver
clear
end
cosmo
 do_cosmo_vem 1
 solvent dmso
end
tddft
 nroots 1
 algorithm 1
 notriplet
 target 1
 civecs
 grad
   root 1
   solve_thresh 1d-05
 end
end
task tddft optimize
