# $Id: nwxc_nwdft_1ar.nw 25441 2014-04-04 04:43:37Z d3y133 $
echo
start nwxc_dat

geometry
symmetry c1
C   0.98348719 0.98348719 0.00000000
C  -1.34346849 0.35998130 0.00000000
C   0.35998130 -1.34346849 0.00000000
C  -0.98348719 -0.98348719 0.00000000
C   1.34346849 -0.35998130 0.00000000
C  -0.35998130 1.34346849 0.00000000
H   1.74853940 1.74853940 0.00000000
H  -2.38854924 0.64000984 0.00000000
H   0.64000984 -2.38854924 0.00000000
H  -1.74853940 -1.74853940 0.00000000
H   2.38854924 -0.64000984 0.00000000
H  -0.64000984 2.38854924 0.00000000
end

# Basis set by N Godbout, DR Salahub, J Andzelm, E Wimmer,
# Can J Chem 70, 560 (1992), DOI: 10.1139/v92-079.
# DZVP (DFT orbital)
basis
  * library "DZVP (DFT orbital)"
end

# LDA

set "dft:weight derivatives" T
set "dft:pstat"              T
dft
  vectors input atomic
  xc slater vwn_5
end
task dft energy

dft
  vectors input atomic
  xc pw91lda
end
task dft energy

# GGA exchange

dft
  vectors input atomic
  xc b3lyp
end
task dft energy

dft
  vectors input atomic
  xc xpbe96 cpbe96
end
task dft energy

dft
  vectors input atomic
  xc becke97
end
task dft energy

dft
  vectors input atomic
  # cam-b3lyp
  xc xcamb88 1.00 lyp 0.81 vwn_5 0.19 hfexch 1.00
  cam 0.33 cam_alpha 0.19 cam_beta 0.46
  direct
end
task dft energy

dft
  vectors input atomic
  xc hse03
  direct
end
task dft energy

set dft:cam_exch F
set dft:direct   F

# meta-GGA

dft
  vectors input atomic
  xc b1b95
end
task dft energy

dft
  vectors input atomic
  xc vs98
end
task dft energy

dft
  vectors input atomic
  xc xtpss03 ctpss03
end
task dft energy

dft
  vectors input atomic
  xc m11
end
task dft energy

