echo

start udft_aoresp
title udft_aoresp


geometry noautoz units angstrom nocenter
symmetry c1
  C  0.00000000      0.00000000      0.00000000
  O  1.18337200      0.00000000      0.00000000
  H -0.63151821      0.94387462      0.00000000
end

basis
"*" library 6-311G**
end

charge 0

set prop:newaoresp 1
set cphf:maxiter 60
set cphf:acc 1.0d-10

property
 dipole
 aoresponse  1 .0911267060
 giao
 orbeta
 damping 0.007
 velocity
 aoresponse
end

set dft:tol_rho 1d-30
set int:acc_std 1d-32
set int:cando_txs f
set dft:job_grid_acc 1d-20

dft
odft
mult 2
grid xfine
direct
xc b3lyp
convergence energy 1e-8 diis 80 ncyds 80 damp 0
end

task dft property
