#  Charges from 6-31G*  optimized B3LYP/DZVP structure
#  Using single-stage RESP fit
#
#  esp
#    range 0.4;  spacing 0.035;  factor 1.0
#  constrain xhn 2 5 4 3
#  constrain xhn 10 13 12 11
#  constrain 0.7341 9
#  constrain -0.5894 14
#  constrain -0.3479 1
#  constrain 0.2747 6
#  constrain equal 30 31
#
$LCX
   23    1    1    0
LCX
    1 N    N         1    1    0    1    1   -0.347900    0.000000
    2 H2   H         0    0    0    1    1    0.274700    0.000000
    3 CA   CT        0    0    0    1    1   -0.498102    0.000000
    4 HA   H1        0    0    0    1    1    0.082916    0.000000
    5 C    C         2    1    0    1    1    0.734100    0.000000
    6 O    O         0    0    0    1    1   -0.589400    0.000000
    7 CB   CT        0    0    0    1    1    0.707723    0.000000
    82HB   HC        0    0    0    1    1   -0.197502    0.000000
    93HB   HC        0    0    0    1    1   -0.115759    0.000000
   10 CG   CT        0    0    0    1    1   -0.029147    0.000000
   112HG   HC        0    0    0    1    1    0.002345    0.000000
   123HG   HC        0    0    0    1    1   -0.058389    0.000000
   13 CD   CT        0    0    0    1    1   -0.142735    0.000000
   142HD   HC        0    0    0    1    1   -0.039196    0.000000
   153HD   HC        0    0    0    1    1    0.062913    0.000000
   16 CE   CT        0    0    0    1    1    0.727637    0.000000
   172HE   H1        0    0    0    1    1   -0.139613    0.000000
   183HE   H1        0    0    0    1    1   -0.165745    0.000000
   19 NZ   NT        0    0    0    1    1   -0.921043    0.000000
   202HZ   H         0    0    0    1    1    0.305925    0.000000
   21 CX   C         0    1    0    1    1    1.074896    0.000000
   22 OX1  O2        0    0    0    1    1   -0.864312    0.000000
   23 OX2  O2        0    0    0    1    1   -0.864312    0.000000
    1    3
    1    2
    3    7
    3    5
    3    4
    5    6
    7   10
    7    9
    7    8
   10   13
   10   12
   10   11
   13   16
   13   15
   13   14
   16   19
   16   18
   16   17
   19   21
   19   20
   21   23
   21   22
