echo

start ch3oh-transden
title ch3oh-transden


charge 0

geometry
  C  -0.0464 0.6816  0.0000
  O  -0.0464 -0.7705 0.0000
  H  -1.0958 0.9786  0.0000
  H  0.4363  1.1005  0.8940
  H  0.4363  1.1005  -0.8940
  H  0.8726  -1.1051 0.0000
end

basis spherical 
* library 6-31G*
end

dft
  xc b3lyp
  maxiter 100
end

tddft
 cis
 nroots 5
 notriplet
 civecs
end
task tddft energy

dplot
transden
civecs ch3oh-transden.civecs_singlet
root 1
tol_rho 1d-10
TITLE TransDens
LimitXYZ
-2.0 2.0 49
-2.0 2.0 49
-2.0 2.0 49
gaussian
output ch3oh-transden-1.cube
end
task dplot
