start testjob

title "allylic_radical IBO localization"

geometry units angstrom
C         -0.25784636     1.21851111     0.00000000
H         -1.34417006     1.24248062     0.00000000
H          0.25678777     2.17304362     0.00000000
C          0.43614025     0.01428420     0.00000000
H          1.52527261     0.06222464     0.00000000
C         -0.14953749    -1.24624893     0.00000000
H         -1.22943924    -1.36577805     0.00000000
H          0.44767502    -2.15141880     0.00000000
end

basis "ao basis"
  * library 6-31G*
end

basis "iao basis"
   * library STO-6G
 end

dft
  xc b3lyp
  mult 2
end

property
localization ibo 2
end

#task dft property

dplot
vectors locorb.movecs
limitxyz
-5.34417006 5.52527261 50
-6.1514188 6.17304362 50
-4.0 4.0 50
gaussian
spin alpha
orbitals view;1;1
output allyl_radical-alpha-00001.cube
end
task dplot

dplot
vectors locorb.movecs
limitxyz
-5.34417006 5.52527261 50
-6.1514188 6.17304362 50
-4.0 4.0 50
gaussian
spin alpha
orbitals view;1;2
output allyl_radical-alpha-00002.cube
end
task dplot

dplot
vectors locorb.movecs
limitxyz
-5.34417006 5.52527261 50
-6.1514188 6.17304362 50
-4.0 4.0 50
gaussian
spin alpha
orbitals view;1;3
output allyl_radical-alpha-00003.cube
end
task dplot

dplot
vectors locorb.movecs
limitxyz
-5.34417006 5.52527261 50
-6.1514188 6.17304362 50
-4.0 4.0 50
gaussian
spin alpha
orbitals view;1;4
output allyl_radical-alpha-00004.cube
end
task dplot

dplot
vectors locorb.movecs
limitxyz
-5.34417006 5.52527261 50
-6.1514188 6.17304362 50
-4.0 4.0 50
gaussian
spin alpha
orbitals view;1;5
output allyl_radical-alpha-00005.cube
end
task dplot

dplot
vectors locorb.movecs
limitxyz
-5.34417006 5.52527261 50
-6.1514188 6.17304362 50
-4.0 4.0 50
gaussian
spin alpha
orbitals view;1;6
output allyl_radical-alpha-00006.cube
end
task dplot

dplot
vectors locorb.movecs
limitxyz
-5.34417006 5.52527261 50
-6.1514188 6.17304362 50
-4.0 4.0 50
gaussian
spin alpha
orbitals view;1;7
output allyl_radical-alpha-00007.cube
end
task dplot

dplot
vectors locorb.movecs
limitxyz
-5.34417006 5.52527261 50
-6.1514188 6.17304362 50
-4.0 4.0 50
gaussian
spin alpha
orbitals view;1;8
output allyl_radical-alpha-00008.cube
end
task dplot

dplot
vectors locorb.movecs
limitxyz
-5.34417006 5.52527261 50
-6.1514188 6.17304362 50
-4.0 4.0 50
gaussian
spin alpha
orbitals view;1;9
output allyl_radical-alpha-00009.cube
end
task dplot

dplot
vectors locorb.movecs
limitxyz
-5.34417006 5.52527261 50
-6.1514188 6.17304362 50
-4.0 4.0 50
gaussian
spin alpha
orbitals view;1;10
output allyl_radical-alpha-00010.cube
end
task dplot

dplot
vectors locorb.movecs
limitxyz
-5.34417006 5.52527261 50
-6.1514188 6.17304362 50
-4.0 4.0 50
gaussian
spin alpha
orbitals view;1;11
output allyl_radical-alpha-00011.cube
end
task dplot

dplot
vectors locorb.movecs
limitxyz
-5.34417006 5.52527261 50
-6.1514188 6.17304362 50
-4.0 4.0 50
gaussian
spin alpha
orbitals view;1;12
output allyl_radical-alpha-00012.cube
end
task dplot

dplot
vectors locorb.movecs
limitxyz
-5.34417006 5.52527261 50
-6.1514188 6.17304362 50
-4.0 4.0 50
gaussian
spin alpha
orbitals view;1;13
output allyl_radical-alpha-00013.cube
end
task dplot

dplot
vectors locorb.movecs
limitxyz
-5.34417006 5.52527261 50
-6.1514188 6.17304362 50
-4.0 4.0 50
gaussian
spin alpha
orbitals view;1;14
output allyl_radical-alpha-00014.cube
end
task dplot

dplot
vectors locorb.movecs
limitxyz
-5.34417006 5.52527261 50
-6.1514188 6.17304362 50
-4.0 4.0 50
gaussian
spin alpha
orbitals view;1;15
output allyl_radical-alpha-00015.cube
end
task dplot

dplot
vectors locorb.movecs
limitxyz
-5.34417006 5.52527261 50
-6.1514188 6.17304362 50
-4.0 4.0 50
gaussian
spin alpha
orbitals view;1;16
output allyl_radical-alpha-00016.cube
end
task dplot

dplot
vectors locorb.movecs
limitxyz
-5.34417006 5.52527261 50
-6.1514188 6.17304362 50
-4.0 4.0 50
gaussian
spin alpha
orbitals view;1;17
output allyl_radical-alpha-00017.cube
end
task dplot

dplot
vectors locorb.movecs
limitxyz
-5.34417006 5.52527261 50
-6.1514188 6.17304362 50
-4.0 4.0 50
gaussian
spin alpha
orbitals view;1;18
output allyl_radical-alpha-00018.cube
end
task dplot

dplot
vectors locorb.movecs
limitxyz
-5.34417006 5.52527261 50
-6.1514188 6.17304362 50
-4.0 4.0 50
gaussian
spin alpha
orbitals view;1;19
output allyl_radical-alpha-00019.cube
end
task dplot

dplot
vectors locorb.movecs
limitxyz
-5.34417006 5.52527261 50
-6.1514188 6.17304362 50
-4.0 4.0 50
gaussian
spin alpha
orbitals view;1;20
output allyl_radical-alpha-00020.cube
end
task dplot

dplot
vectors locorb.movecs
limitxyz
-5.34417006 5.52527261 50
-6.1514188 6.17304362 50
-4.0 4.0 50
gaussian
spin beta
orbitals view;1;1
output allyl_radical-beta-00001.cube
end
task dplot

dplot
vectors locorb.movecs
limitxyz
-5.34417006 5.52527261 50
-6.1514188 6.17304362 50
-4.0 4.0 50
gaussian
spin beta
orbitals view;1;2
output allyl_radical-beta-00002.cube
end
task dplot

dplot
vectors locorb.movecs
limitxyz
-5.34417006 5.52527261 50
-6.1514188 6.17304362 50
-4.0 4.0 50
gaussian
spin beta
orbitals view;1;3
output allyl_radical-beta-00003.cube
end
task dplot

dplot
vectors locorb.movecs
limitxyz
-5.34417006 5.52527261 50
-6.1514188 6.17304362 50
-4.0 4.0 50
gaussian
spin beta
orbitals view;1;4
output allyl_radical-beta-00004.cube
end
task dplot

dplot
vectors locorb.movecs
limitxyz
-5.34417006 5.52527261 50
-6.1514188 6.17304362 50
-4.0 4.0 50
gaussian
spin beta
orbitals view;1;5
output allyl_radical-beta-00005.cube
end
task dplot

dplot
vectors locorb.movecs
limitxyz
-5.34417006 5.52527261 50
-6.1514188 6.17304362 50
-4.0 4.0 50
gaussian
spin beta
orbitals view;1;6
output allyl_radical-beta-00006.cube
end
task dplot

dplot
vectors locorb.movecs
limitxyz
-5.34417006 5.52527261 50
-6.1514188 6.17304362 50
-4.0 4.0 50
gaussian
spin beta
orbitals view;1;7
output allyl_radical-beta-00007.cube
end
task dplot

dplot
vectors locorb.movecs
limitxyz
-5.34417006 5.52527261 50
-6.1514188 6.17304362 50
-4.0 4.0 50
gaussian
spin beta
orbitals view;1;8
output allyl_radical-beta-00008.cube
end
task dplot

dplot
vectors locorb.movecs
limitxyz
-5.34417006 5.52527261 50
-6.1514188 6.17304362 50
-4.0 4.0 50
gaussian
spin beta
orbitals view;1;9
output allyl_radical-beta-00009.cube
end
task dplot

dplot
vectors locorb.movecs
limitxyz
-5.34417006 5.52527261 50
-6.1514188 6.17304362 50
-4.0 4.0 50
gaussian
spin beta
orbitals view;1;10
output allyl_radical-beta-00010.cube
end
task dplot

dplot
vectors locorb.movecs
limitxyz
-5.34417006 5.52527261 50
-6.1514188 6.17304362 50
-4.0 4.0 50
gaussian
spin beta
orbitals view;1;11
output allyl_radical-beta-00011.cube
end
task dplot

dplot
vectors locorb.movecs
limitxyz
-5.34417006 5.52527261 50
-6.1514188 6.17304362 50
-4.0 4.0 50
gaussian
spin beta
orbitals view;1;12
output allyl_radical-beta-00012.cube
end
task dplot

dplot
vectors locorb.movecs
limitxyz
-5.34417006 5.52527261 50
-6.1514188 6.17304362 50
-4.0 4.0 50
gaussian
spin beta
orbitals view;1;13
output allyl_radical-beta-00013.cube
end
task dplot

dplot
vectors locorb.movecs
limitxyz
-5.34417006 5.52527261 50
-6.1514188 6.17304362 50
-4.0 4.0 50
gaussian
spin beta
orbitals view;1;14
output allyl_radical-beta-00014.cube
end
task dplot

dplot
vectors locorb.movecs
limitxyz
-5.34417006 5.52527261 50
-6.1514188 6.17304362 50
-4.0 4.0 50
gaussian
spin beta
orbitals view;1;15
output allyl_radical-beta-00015.cube
end
task dplot

dplot
vectors locorb.movecs
limitxyz
-5.34417006 5.52527261 50
-6.1514188 6.17304362 50
-4.0 4.0 50
gaussian
spin beta
orbitals view;1;16
output allyl_radical-beta-00016.cube
end
task dplot

dplot
vectors locorb.movecs
limitxyz
-5.34417006 5.52527261 50
-6.1514188 6.17304362 50
-4.0 4.0 50
gaussian
spin beta
orbitals view;1;17
output allyl_radical-beta-00017.cube
end
task dplot

dplot
vectors locorb.movecs
limitxyz
-5.34417006 5.52527261 50
-6.1514188 6.17304362 50
-4.0 4.0 50
gaussian
spin beta
orbitals view;1;18
output allyl_radical-beta-00018.cube
end
task dplot

dplot
vectors locorb.movecs
limitxyz
-5.34417006 5.52527261 50
-6.1514188 6.17304362 50
-4.0 4.0 50
gaussian
spin beta
orbitals view;1;19
output allyl_radical-beta-00019.cube
end
task dplot

dplot
vectors locorb.movecs
limitxyz
-5.34417006 5.52527261 50
-6.1514188 6.17304362 50
-4.0 4.0 50
gaussian
spin beta
orbitals view;1;20
output allyl_radical-beta-00020.cube
end
task dplot
