start n2
title "SCS MP2 https://doi.org/10.1063/1.1569242"
driver 
clear
tight
end

geometry
n 0 0 0
n 0 0 1.0909
end

basis spherical
   n  s
  19730.800647      .21887984991E-03
  2957.8958745      .16960708803E-02
  673.22133595      .87954603538E-02
  190.68249494      .35359382605E-01
  62.295441898      .11095789217
  22.654161182      .24982972552
   n  s
  8.9791477428      .40623896148
  3.6863002370      .24338217176
   n  s
  .84660076805      1.0000000000
   n  s
  .33647133771      1.0000000000
   n  s
  .13647653675      1.0000000000
   n  p
  49.200380510      .55552416751E-02
  11.346790537      .38052379723E-01
  3.4273972411      .14953671029
  1.1785525134      .34949305230
   n  p
  .41642204972      .45843153697
   n  p
  .14260826011      .24428771672
   n  d
  1.00   1.00
end

dft
direct 
xc b3lyp
vectors input atomic output dft.mos
end

task dft optimize

basis spherical
N    S
  90726.8892100              0.39257887368E-04      
  13590.5288010              0.30513316455E-03      
   3092.9883781              0.16000560446E-02      
    875.99876362             0.66982937306E-02      
    285.74469982             0.23690078765E-01      
    103.11913417             0.71455405268E-01      
     40.128556777            0.17632774876    
     16.528095704            0.32677592815    
N    S
     69.390960983            0.80052094386E-01      
     20.428200596            0.78268063538    
N    S
      7.1292587972           1.0000000        
N    S
      3.1324304893           1.0000000        
N    S
      0.98755778723          1.0000000        
N    S
      0.38765721307          1.0000000        
N    S
      0.14909883075          1.0000000        
N    P
    150.05742670            -0.86216165986E-03      
     35.491599483           -0.68571273236E-02      
     11.247864223           -0.31795688855E-01      
      4.0900305195          -0.10537396822    
      1.6220573146          -0.24519708041    
N    P
      0.66442261530          1.0000000        
N    P
      0.27099770070          1.0000000        
N    P
      0.10688749984          1.0000000        
N    D
     10.                    1.
N    D
      2.83700000             1.0000000        
N    D
      0.96800000             1.0000000        
N    D
      0.33500000             1.0000000        
N    F
      2.02700000             1.0000000        
N    F
      0.68500000             1.0000000        
end

scf
 direct
 vectors input atomic
end

mp2
# tight
 freeze atomic
end

task mp2
