echo

start cosmo_h2cco2na_dat

geometry
    na     0.00000000     0.00000000    -1.88952175
    o      0.00000000    -1.13017681    -0.02536123
    o      0.00000000     1.13017681    -0.02536123
    c      0.00000000     0.00000000     0.57704797
    c      0.00000000     0.00000000     2.04258971
    h      0.00000000    -0.93903758     2.58461999
    h      0.00000000     0.93903758     2.58461999
end

basis spherical
  * library 6-31g*
end

cosmo
end

dft
  odft
  xc b3lyp
  mult 2
  print cosmo_energies
end

task dft optimize
