Title "propene"

Start propene

echo

charge 0

geometry autosym units angstrom
C               -0.1998636816   -0.9014949094   -0.8468322918
C                0.2748441185   -0.1370447712    0.3697110249
C               -0.0152434869    1.1410344513    0.6338451718
H                0.1679090723   -1.932882823    -0.8417404909
H                0.147479416    -0.432351926    -1.7763027936
H               -1.2957105741   -0.9426028613   -0.8925237702
H                0.9006745599   -0.6838689089    1.0760236483
H               -0.635213312     1.7398035655   -0.032908792
H                0.3564391379    1.6369343297    1.5271087692
end


basis "ao basis"  print
  H library "6-31+G*"
  C library "6-31+G*"
END

dft
  mult 1
  xc b3lyp
  grid ssf euler lebedev 75 11
end

task dft 
