echo
start h2o_rpbe0_cg

geometry units au
 O 0       0        0
 H 0       1.430   -1.107
 H 0      -1.430   -1.107
end

basis
  O library 6-31g*
  H library 6-31g*
end

dft
  cgmin
  xc pbe0
end

task dft
