title "GW Trifluoroacetamide"
start
echo

memory 2000 mb

geometry
O   1.5154     1.1380    -0.0012
N   1.4926    -1.1655    -0.0010
C   0.9005     0.0760     0.0021
H   2.5025    -1.2628    -0.0022
H   0.9511    -2.0241    -0.0008
end

basis "ao basis" bse spherical
 * library cc-pvdz
end

basis "cd basis" bse spherical
 * library cc-pvdz-rifit
end


dft
 odft
 mult 2
 xc pbe0
 direct
 grid fine nodisk
 tolerances accCoul 12
 convergence energy 1d-8
 noprint "final vectors analysis"
end

gw
 method cdgw
 states alpha occ 5 vir 5
 states beta occ 5 vir 5
end

task dft gw

