# $Id: nwxc_pspw_4n.nw 23504 2013-01-29 06:58:18Z d3y133 $
echo

#memory 950 mb

start nwxc_dat

charge 0

geometry
  P 0.0 0.0 0.0
end

set nwpw:minimizer 2

# LDA exchange-correlation

nwpw 
   mult 4
   simulation_cell
     boundary_conditions aperiodic
     ngrid 32 32 32
     SC 20.0      #Not checking automatic unit cell generation
   end
   lcao #added 3/26/10 because of changed default
   xc lda
   unrestricted
end
task pspw energy

# GGA exchange-correlation

nwpw 
   mult 4
   simulation_cell
     boundary_conditions aperiodic
     ngrid 32 32 32
     SC 20.0      #Not checking automatic unit cell generation
   end
   lcao #added 3/26/10 because of changed default
   xc pbe96
   unrestricted
end
task pspw energy

nwpw 
   mult 4
   simulation_cell
     boundary_conditions aperiodic
     ngrid 32 32 32
     SC 20.0      #Not checking automatic unit cell generation
   end
   lcao #added 3/26/10 because of changed default
   xc revpbe
   unrestricted
end
task pspw energy

nwpw 
   mult 4
   simulation_cell
     boundary_conditions aperiodic
     ngrid 32 32 32
     SC 20.0      #Not checking automatic unit cell generation
   end
   lcao #added 3/26/10 because of changed default
   xc rpbe
   unrestricted
end
task pspw energy


nwpw 
   mult 4
   simulation_cell
     boundary_conditions aperiodic
     ngrid 32 32 32
     SC 20.0      #Not checking automatic unit cell generation
   end
   lcao #added 3/26/10 because of changed default
   xc hse
   unrestricted
end
task pspw energy
