echo

start ch3f_cosmo_efg_1
title ch3f_cosmo_efg_1

geometry noautoz units angstrom nocenter
symmetry c1
c  0.0    0.0    0.0
f  0.0    0.0    1.383
h  1.028  0.0   -0.350
h -0.514  0.890 -0.350
h -0.514 -0.890 -0.350
end

BASIS "ao basis" PRINT
* library 6-311G
END

charge 0

dft
 direct
 xc b3lyp
end

cosmo
 dielec 78
end

relativistic
 zora on
end

property
 efieldgradz4
end

task dft property
