echo
start au2-sarc-zora-spinspin

geometry
Au 0.000 0.000 -1.25
Au 0.000 0.000  1.25
end

basis spherical
* library sarc-zora
end


dft
xc pbe0
convergence  energy 1d-8
noprint "final vectors analysis" multipole
end
relativistic
 zora on
 modelpotential 1
end

property
shielding
spinspin
end

task dft property
