# $Id$
echo


start nwxc_dat

charge 0

geometry
  Ar 0.0 0.0 0.0
end

set nwpw:minimizer 2

# LDA exchange-correlation

nwpw 
   simulation_cell
     boundary_conditions aperiodic
     ngrid 32 32 32
     SC 20.0      #Not checking automatic unit cell generation
   end
   lcao #added 3/26/10 because of changed default
   xc lda
end
task pspw energy

# GGA exchange-correlation

nwpw 
   simulation_cell
     boundary_conditions aperiodic
     ngrid 32 32 32
     SC 20.0      #Not checking automatic unit cell generation
   end
   lcao #added 3/26/10 because of changed default
   xc blyp
end
task pspw energy

nwpw 
   simulation_cell
     boundary_conditions aperiodic
     ngrid 32 32 32
     SC 20.0      #Not checking automatic unit cell generation
   end
   lcao #added 3/26/10 because of changed default
   xc pbe96
end
task pspw energy

nwpw 
   simulation_cell
     boundary_conditions aperiodic
     ngrid 32 32 32
     SC 20.0      #Not checking automatic unit cell generation
   end
   lcao #added 3/26/10 because of changed default
   xc revpbe
end
task pspw energy

#nwpw 
#   simulation_cell
#     boundary_conditions aperiodic
#     ngrid 32 32 32
#     SC 20.0      #Not checking automatic unit cell generation
#   end
#   lcao #added 3/26/10 because of changed default
#   xc rpbe
#end
#task pspw energy

nwpw 
   simulation_cell
     boundary_conditions aperiodic
     ngrid 32 32 32
     SC 20.0      #Not checking automatic unit cell generation
   end
   lcao #added 3/26/10 because of changed default
   xc pbesol
end
task pspw energy

# hybrid GGA

nwpw 
   simulation_cell
     boundary_conditions aperiodic
     ngrid 32 32 32
     SC 20.0      #Not checking automatic unit cell generation
   end
   lcao #added 3/26/10 because of changed default
   xc b3lyp
end
task pspw energy

nwpw 
   simulation_cell
     boundary_conditions aperiodic
     ngrid 32 32 32
     SC 20.0      #Not checking automatic unit cell generation
   end
   lcao #added 3/26/10 because of changed default
   xc blyp0
end
task pspw energy

nwpw 
   simulation_cell
     boundary_conditions aperiodic
     ngrid 32 32 32
     SC 20.0      #Not checking automatic unit cell generation
   end
   lcao #added 3/26/10 because of changed default
   xc bnl
end
task pspw energy

nwpw 
   simulation_cell
     boundary_conditions aperiodic
     ngrid 32 32 32
     SC 20.0      #Not checking automatic unit cell generation
   end
   lcao #added 3/26/10 because of changed default
   xc hse
end
task pspw energy

nwpw 
   simulation_cell
     boundary_conditions aperiodic
     ngrid 32 32 32
     SC 20.0      #Not checking automatic unit cell generation
   end
   lcao #added 3/26/10 because of changed default
   xc pbe0
end
task pspw energy

nwpw 
   simulation_cell
     boundary_conditions aperiodic
     ngrid 32 32 32
     SC 20.0      #Not checking automatic unit cell generation
   end
   lcao #added 3/26/10 because of changed default
   xc revpbe0
end
task pspw energy
