echo
start hi_zora_sf

geometry noautoz units angstrom
 H   0.00000000     0.00000000    -1.61179148
 I   0.00000000     0.00000000     0.02355241
end

basis spherical
* library "DZVP (DFT Orbital)"
end

set dft:no_prune T
set dft:tol_rho 1d-30

dft
 grid huge
 tolerances acccoul 15
 xc b3lyp
end

relativistic
  zora on
  zora:cutoff 1d-30 
end

task dft
